s 1
v 1 -2 3 -4 5 6 0 -8 9 10 11 -12 0 0 15 0 17 18 19 20 21 22 0 0 0 26 27 -28 29 -30 31 32 0 0 35 36 37 -38 39 40 -41 42 0 -44 -45 46 0 -48 49 50 51 -52 -53 -54 -55 0 57 58 0 60 0 -62 63 -64 65 66 67 68 69 70 71 72 73 0 -75 -76 77 78 79 80 81 82 -83 84 -85 86 0 88 89 90 91 92 -93 94 95 96 -97 -98 99 -100 101 0 -103 104 -105 0 0 0 -109 -110 111 112 113 114 0 -116 117 -118 -119 0 121 122 0 124 125 0 0 128 0 0 131 -132 133 134 135 136 137 -138 -139 0 0 142 -143 144 -145 0 0 0 149 -150 0 152 153 -154 -155 156 157 158 159 -160 161 162 163 0 165 -166 167 -168 -169 170 -171 0 173 0 175 176 177 0 0 180 -181 182 0 184 185 186 187 -188 -189 190 0 192 193 194 0 196 -197 198 -199 0
t 1